15
0 159 52 186 194 62 149 89 42 101 42 159 40 39 172 
159 0 189 162 198 78 113 178 188 38 176 6 119 184 81 
52 189 0 14 180 73 30 92 184 166 115 11 171 192 11 
186 162 14 0 89 62 74 191 81 62 164 31 117 196 83 
194 198 180 89 0 39 199 87 109 143 78 151 3 101 41 
62 78 73 62 39 0 123 22 159 4 89 11 11 53 129 
149 113 30 74 199 123 0 116 197 37 167 11 197 138 106 
89 178 92 191 87 22 116 0 194 144 33 64 19 18 172 
42 188 184 81 109 159 197 194 0 184 46 53 185 27 166 
101 38 166 62 143 4 37 144 184 0 11 143 33 70 56 
42 176 115 164 78 89 167 33 46 11 0 79 47 139 79 
159 6 11 31 151 11 11 64 53 143 79 0 114 3 116 
40 119 171 117 3 11 197 19 185 33 47 114 0 14 169 
39 184 192 196 101 53 138 18 27 70 139 3 14 0 159 
172 81 11 83 41 129 106 172 166 56 79 116 169 159 0 
